n_res = 4;
rc = [ 17, 22, 12, 10 ];
n_tasks = 30;
d = [ 8, 6, 2, 6, 4, 4, 7, 3, 8, 5, 10, 6, 10, 7, 4, 9, 5, 4, 6, 1, 4, 8, 6, 2, 5, 9, 10, 3, 10, 7 ];
rr = [| 17, 17, 17, 17, 17, 17, 17, 17, 17, 17, 17, 17, 17, 17, 17, 17, 17, 17, 17, 17, 17, 17, 17, 17, 17, 17, 17, 17, 17, 17
      | 22, 22, 22, 22, 22, 22, 22, 22, 22, 22, 22, 22, 22, 22, 22, 22, 22, 22, 22, 22, 22, 22, 22, 22, 22, 22, 22, 22, 22, 22
      | 12, 12, 12, 12, 12, 12, 12, 12, 12, 12, 12, 12, 12, 12, 12, 12, 12, 12, 12, 12, 12, 12, 12, 12, 12, 12, 12, 12, 12, 12
      | 10, 10, 10, 10, 10, 10, 10, 10, 10, 10, 10, 10, 10, 10, 10, 10, 10, 10, 10, 10, 10, 10, 10, 10, 10, 10, 10, 10, 10, 10|];
suc = [ { 4, 10, 11 },
       { 4, 6, 21 },
       { 7, 9, 15 },
       { 5, 8, 16 },
       { 13, 23 },
       { 14, 18, 20 },
       { 12, 13, 14 },
       { 17, 19, 26 },
       { 14, 18, 24 },
       { 15, 16, 19 },
       { 12, 17, 22 },
       { 18, 19, 21 },
       { 17, 29 },
       { 16, 25 },
       { 20, 21, 22 },
       { 27 },
       { 30 },
       { 28 },
       { 20 },
       { 24, 30 },
       { 23, 26 },
       { 23, 24, 26 },
       { 25, 30 },
       { 25, 27 },
       { 28, 29 },
       { 27, 28 },
       { 29 },
       {  },
       {  },
       {  } ];
